50
11534

407 678
826 911
795 179
403 610
11 998
78 995
153 947
941 579
362 435
693 431
917 758
252 481
789 75
443 952
786 385
536 533
618 131
161 598
704 542
782 406
548 458
279 150
984 833
785 995
415 379
306 234
368 675
988 830
125 479
473 524
863 68
229 636
679 537
651 673
72 730
577 529
708 543
612 437
110 806
387 212
342 438
416 686
360 78
798 291
625 947
741 441
52 829
203 39
564 125
460 740
